bachelor/Metodos_de_Apoio_a_Decisao_AMPL/varInteiras.dat
data;

param: jogadores:  Manuseio Arremesso Rebote Defesa :=
1  3 3 1 3 
2  2 1 3 2
3  2 3 2 2
4  1 3 3 1 
5  3 3 3 3 
6  3 1 2 3 
7  3 2 2 1;

