bachelor/Metodos_de_Apoio_a_Decisao_AMPL/varInteiras.sol
Problem:    varInteiras
Rows:       13
Columns:    9 (9 integer, 9 binary)
Non-zeros:  59
Status:     INTEGER OPTIMAL
Objective:  z = 10 (MAXimum)

   No.   Row name        Activity     Lower bound   Upper bound
------ ------------    ------------- ------------- -------------
     1 z                          10                             
     2 o                           5                           5 
     3 a                           4             4               
     4 b                           4             2               
     5 c                           2             1               
     6 d                          14             2               
     7 e                          11             2               
     8 f                          12             2               
     9 g                           1             1               
    10 h                           0                          -0 
    11 i                           1                           1 
    12 j                          -2                          -2 
    13 k                           1                           2 

   No. Column name       Activity     Lower bound   Upper bound
------ ------------    ------------- ------------- -------------
     1 x[1]         *              1             0             1 
     2 x[2]         *              0             0             1 
     3 x[3]         *              1             0             1 
     4 x[4]         *              1             0             1 
     5 x[5]         *              1             0             1 
     6 x[6]         *              0             0             1 
     7 x[7]         *              1             0             1 
     8 y1           *              0             0             1 
     9 y2           *              0             0             1 

Integer feasibility conditions:

KKT.PE: max.abs.err = 0.00e+00 on row 0
        max.rel.err = 0.00e+00 on row 0
        High quality

KKT.PB: max.abs.err = 0.00e+00 on row 0
        max.rel.err = 0.00e+00 on row 0
        High quality

End of output
